,x,y,ref_stress_x,ref_stress_y,ref_stress_xy,spr_stress_x,spr_stress_y,spr_stress_xy,ann_stress_x,ann_stress_y,ann_stress_xy,err_spr_abs_x,err_spr_abs_y,err_spr_abs_xy,err_ann_abs_x,err_ann_abs_y,err_ann_abs_xy,err_dc_abs_x,err_dc_abs_y,err_dc_abs_xy,err_spr_perc_x,err_spr_perc_y,err_spr_perc_xy,err_ann_perc_x,err_ann_perc_y,err_ann_perc_xy,err_dc_perc_x,err_dc_perc_y,err_dc_perc_xy
0,0.0,0.0,0.0205902030560067,0.0668557576947962,0.1148366060378736,0.0634426472886781,0.05976050567473881,0.05729508167929659,0.05664428323507309,0.03201038017868996,0.02790643461048603,0.0428524442326714,0.007095252020057383,0.05754152435857701,0.03605408017906639,0.013787084061547647,0.002376573932427739,0.04622386119918419,0.002256414519468272,0.0034495542729634787,2.081205518765888,0.10612776318306016,0.5010730144671776,1.7510308218426467,0.2062213418399532,0.020695264466836776,2.2449444074666123,0.03375048907184704,0.030038803757625864
1,9.6,8.8,0.1422594166691461,0.1427355271613027,0.1166942968786006,0.06073286065926989,0.062000913551361655,0.06580507222763711,0.08064284175634384,0.041842762380838394,0.05306728184223175,0.08152655600987621,0.08073461360994104,0.05088922465096349,0.008497176259295025,0.029264048937502035,0.046664963644767285,0.06968225223224778,0.019076398127051725,0.28566352954511526,0.5730837221094699,0.5656238164077007,0.4360900747695028,0.059730149738044955,0.20502288056449527,0.3998906964006457,0.4898252352201638,0.13364856323046925,2.447964786507919
2,19.2,17.6,0.0730416763715676,0.0934367604781762,0.0990475767099714,0.06321241329289282,0.08611449469107862,0.09694094949242371,0.11246003210544586,0.054878488183021545,0.08642542362213135,0.00982926307867478,0.007322265787097576,0.002106627217547688,0.008157520382874359,0.006848690681614006,0.006200889424099951,0.014087078244805151,0.011290573839064774,0.017991936967103286,0.13457061183361538,0.07836600658696659,0.021268841576167586,0.11168309365432058,0.07329760413957885,0.0626051603691147,0.19286356700171145,0.1208365292341432,0.18164944125575955
3,28.799999999999997,26.400000000000002,0.0942799388587405,0.0760363819008616,0.0146923746271445,0.0933812319105545,0.06566424618549897,0.014115010128980237,0.13376224040985107,0.06499797850847244,0.11225338280200958,0.000898706948186001,0.010372135715362621,0.0005773644981642637,0.002115978378064459,0.004166457236364218,0.02580050273701413,0.014385290788537744,0.04044488167237929,0.006584578858285017,0.009532324257576497,0.13641016913306195,0.03929688105676052,0.022443569689144863,0.05479557459475865,1.756047159956506,0.15258061219249627,0.5319148631389705,0.44816301145220294
4,38.4,35.2,0.0802073834915385,0.072637358518467,0.0513428009771747,0.02729929462658438,0.06823141167496714,0.05084150037279964,0.11347147822380066,0.06583554297685623,0.1139523983001709,0.052908088864954114,0.004405946843499861,0.0005013006043750601,0.011372415580295059,0.008304903121814783,0.0015343099557799736,0.002288089127276724,0.016687381987151584,0.0074759609901193375,0.6596411273101269,0.06065676028650894,0.00976379540722606,0.14178763955683452,0.11433377109526058,0.02988364340430271,0.028527163306830805,0.2297355290378443,0.1456087484094002
5,48.0,44.0,0.0383977944880937,0.0168297144289417,0.0231114974973829,0.03307940097693717,0.016362409665809614,-0.0008869081880901825,0.07002933323383331,0.06271927803754807,0.1052650660276413,0.005318393511156531,0.000467304763132087,0.02399840568547308,0.00047724497618421846,0.008860606450279262,0.013301779961410305,0.020853872426350097,0.01389122031627733,0.2129830478129553,0.138507786242922,0.027766648394726947,1.038375193480674,0.012428968448492568,0.5264858466666473,0.5755481644110934,0.5431007875417536,0.82539845669567,9.215458575848366
6,0.0,8.8,0.03745647187031,0.0028618675757697,-0.0195075389431791,0.010569019893593145,-0.0008390683408312344,-0.024522586314900695,0.06488415598869324,0.03538631275296211,0.03654537349939346,0.02688745197671686,0.0037009359166009343,0.005015047371721596,0.016113978276617223,0.012456486849909104,0.004178661437146219,0.04680106726660782,0.0023935008001467785,0.009321938030789198,0.7178319428966103,1.2931890867122204,0.25708252518830066,0.43020544840449915,4.352572758912134,0.21420751481351302,1.2494787931082436,0.8363422614000741,0.47786335621022336
7,9.6,16.48,-0.0255432368604206,-0.0297933361588941,0.0304406771828293,-0.029348070193658978,-0.020936419085941148,-0.011183823128833878,0.0865880697965622,0.04427856206893921,0.059300437569618225,0.0038048333332383784,0.008856917072952952,0.041624500311663176,8.974062523613852e-05,0.0089561260401235,0.051396813469088,0.003999492875521805,0.023170174172121794,0.10990702846010172,0.1489565850259953,0.2972784593748467,1.3673973171379494,0.003513283211776193,0.30060836397638063,1.688425430235811,0.15657737104254954,0.7776965308131457,3.610531651447527
8,19.200000000000003,24.160000000000004,-0.0665207895735182,-0.1099219356672112,-0.1009092181853917,-0.05463480110335301,-0.11014637012981968,-0.10566591209333075,0.10524846613407135,0.05338772013783455,0.08253949880599976,0.011885988470165192,0.00022443446260847488,0.00475669390793905,0.0011663940450273302,0.014904316236192372,0.002742938704046932,0.03034646669932771,0.011253982046068353,0.009745070155919758,0.17868080860689273,0.0020417622856274157,0.0471383486412509,0.017534278418903034,0.13559000890700476,0.027182241160639758,0.4561952269942475,0.10238158542021857,0.09657264550415989
9,28.8,31.840000000000003,-0.0940217070398717,-0.0690458731411728,0.0342385796203865,-0.09399226199363873,-0.06358704758880472,-0.00814311749121333,0.09639591723680496,0.05714131146669388,0.09178651124238968,2.9445046232964844e-05,0.005458825552368082,0.04238169711159983,0.001983233529529088,0.0042660741449561945,0.08615660195496215,0.014934907600090641,0.015674033125331693,0.23792957353811933,0.0003131728529506288,0.07906085192386285,1.2378345591872835,0.02109335803367259,0.061786084393974997,2.5163602845154935,0.1588453142395852,0.227008978411848,6.949166004434663
10,38.400000000000006,39.52,-1.3590334779408997,-0.2203365195185332,-0.2093052446189294,-0.25024626409419143,-0.10342632312846309,-0.06323499513793977,0.07186992466449738,0.057857856154441833,0.09309744834899902,1.1087872138467083,0.11691019639007011,0.14607024948098962,1.2218959755090302,0.054064773359933344,0.03243778937486508,0.8608965936511407,0.03350742672578452,0.08940965165000597,0.8158645330258201,0.5305983622031227,0.6978814589521238,0.8990918879793532,0.24537363791564196,0.1549783878274182,0.6334623889880205,0.15207386773197218,0.42717348919177456
11,48.0,47.2,-0.19614324542915,-0.1546638206623312,-0.0216108815626707,-0.05881270269579562,-0.05782082810454215,-0.05484520433078193,0.04049287736415863,0.05643010511994362,0.08888903260231018,0.13733054273335438,0.09684299255778905,0.03323432276811123,0.03608656498824728,0.026810367502998922,0.06649551970199681,0.13761615259517404,0.1911973938590663,0.04331719038617084,0.7001543307437539,0.6261515598351919,1.5378513214156957,0.1839806663201273,0.17334608306057878,3.076946190703162,0.7016104597131444,1.236212793918345,2.0044157042160773
12,0.0,17.6,0.0068634010186689,0.0531925820494846,0.0889340921869523,0.044896204418281176,0.03627430097534828,0.032258668447437674,0.06883496791124344,0.0370049923658371,0.04068753495812416,0.03803280339961228,0.016918281074136322,0.05667542373951462,0.02514697916002106,0.011349819668646205,0.03405560400393075,0.015407953733061397,0.016006352964656814,0.006995242376375069,5.541393151319669,0.31805715049510835,0.6372744393721892,3.6639239192959336,0.21337222656511703,0.3829308105191084,2.2449444074666123,0.30091325421590254,0.07865647699725838
13,9.6,24.16,0.1063874284147717,0.0996344689256324,0.0298207686705733,0.04100655213942049,0.05450314901638411,0.09499293964727498,0.06433245539665222,0.040028348565101624,0.04818787798285484,0.0653808762753512,0.045131319909248284,0.06517217097670168,0.04138944990629925,0.03379892594877616,0.03289850936697476,0.010241274362146224,0.08828846662555388,0.06559899329742512,0.6145545319551421,0.452968941330279,2.1854624773979294,0.3890445565140891,0.3392292478018208,1.103207959875244,0.09626395256231461,0.8861237238234569,2.199775398886926
14,19.200000000000003,30.720000000000002,0.0243472254571892,0.0307678333705533,0.0576225818844746,0.020853362248202778,0.037170479928456214,0.05879678181528171,0.04980849102139473,0.04174137860536575,0.052199386060237885,0.0034938632089864217,0.006402646557902913,0.0011741999308071127,0.011039087295772913,0.013510728698385908,0.004234861746640048,0.004695692748268383,0.0028814457442548104,0.00752789839779984,0.14350149322475514,0.2080954638824402,0.02037742656448861,0.4534022702169258,0.43911862547060276,0.07349309260613082,0.1928635670017114,0.09365123990214178,0.13064146297526633
15,28.8,37.28,0.0811770730825477,0.0878789191136391,0.0935832414421229,0.08368391016751608,0.09060368055265218,0.05653209310733568,0.037920549511909485,0.04542272537946701,0.06120464950799942,0.0025068370849683913,0.002724761439013082,0.037051148334787225,0.024035761615853815,0.030021062959197264,0.037153136322179287,0.003558867084595324,0.027247872051293046,0.022003636410717217,0.030881097208558233,0.03100585972717307,0.39591648850613625,0.2960905179645024,0.3416184821342198,0.39700629888051975,0.04384079087178184,0.3100615292736809,0.23512368316848153
16,38.400000000000006,43.84,0.0267357944971795,0.0077948876324153,0.0319989438270779,0.005709707516333522,0.015055489577170098,0.03143633189713768,0.025690320879220963,0.048682376742362976,0.06914447993040085,0.021026086980845977,0.007260601944754798,0.0005626119299402196,0.010269197868657598,0.03223346093268632,0.009742434778287852,0.0007626963757589103,0.008305563146801264,0.008940206620167791,0.7864395794583224,0.9314569095982016,0.01758220311834575,0.38409922210244957,4.135205336205541,0.3044611356842248,0.028527163306830892,1.065514159852966,0.2793906782824025
17,48.0,50.4,0.0539640309103323,0.0691786253592441,0.1370357224062486,0.05488870349231129,0.07342748545001142,0.032811874595610184,0.009809717535972595,0.04983647167682648,0.07172583043575287,0.0009246725819789942,0.004248860090767317,0.1042238478106384,0.008541305530865288,0.020496248616881124,0.08719925072942211,0.03375811083783604,0.035636524696018634,0.09427560584106129,0.01713497984454587,0.06141868342574051,0.7605596991831232,0.15827775254701953,0.29628007943847184,0.6363249610996758,0.6255668872091705,0.5151377974187608,0.6879637235142017
18,0.0,26.400000000000002,0.0124854906234366,-0.00851156384732,0.0137640967664135,-0.003637715009319989,-0.0022059266651598235,0.014267466785607488,0.02134249359369278,0.03000214323401451,0.0221626628190279,0.01612320563275659,0.006305637182160177,0.0005033700191939879,0.017516652610577912,0.03546645687009565,0.01359159465163822,0.015600355755535873,0.014871692474115373,0.029331100455004762,1.2913553915527844,0.7408318019191744,0.03657123512981162,1.402960695649179,4.166855528113417,0.987467240480595,1.2494787931082452,1.7472338504278457,2.130986213826768
19,9.6,31.840000000000003,0.0295832010174809,0.0449744695679216,0.1601870303432111,0.0269429262157241,0.051064076531320654,0.02793568711966325,-0.009594619274139404,0.02695489302277565,0.01389735285192728,0.002640274801756798,0.006089606963399052,0.13225134322354787,0.0028706973229827397,0.0057559283331899275,0.11705112284222882,0.013825713969013356,0.002876619913702881,0.06706146291008938,0.08924912487315496,0.13540141822467458,0.8256058117825817,0.09703809000541985,0.12798212827162256,0.7307153556154902,0.4673501681188474,0.06396117489186917,0.4186447727160298
20,19.200000000000003,37.28,-0.022173596524506,-0.0110791307546103,-0.0033260407192214,-0.011231028380511722,-0.014081104654952565,-0.0020386227288188476,-0.023686200380325317,0.02735569141805172,0.014623211696743965,0.01094256814399428,0.003001973900342264,0.0012874179904025524,0.03680761715105095,0.022746035889526606,0.015682381604383754,0.010115488899775971,0.017453730495915407,0.02097952579407892,0.4934954116216862,0.2709575296864394,0.38707222763764804,1.6599750568371532,2.0530523913224346,4.715029949499499,0.45619522699425197,1.5753700251847353,6.307657531922839
21,28.8,42.720000000000006,0.0048014366370073,0.0139931356005877,0.1670228233616795,0.0007300242134397175,0.019991561283992754,0.03434067664339034,-0.02563297748565674,0.03245389834046364,0.02738315239548683,0.004071412423567583,0.005998425683405055,0.13268214671828915,0.012914609785712655,0.01327058957586589,0.1309992885272946,0.040569633390432916,0.07670194249959651,0.10570720281261309,0.8479571285366923,0.4286691599810643,0.7943953050714072,2.6897386682503917,0.9483642519199583,0.7843196869186089,8.449478032833037,5.481397785952642,0.6328907671720377
22,38.400000000000006,48.16,-0.4530111593136332,-0.042956330543851,-0.0448680127465956,-0.03401096849408691,-0.019849585104795637,-0.005458662151756492,-0.0208372101187706,0.039218541234731674,0.04446066915988922,0.4190001908195463,0.023106745439055363,0.039409350594839104,0.4558295425900958,0.040943396008109194,0.04092333637716696,0.28696553121704693,0.07277096223000411,0.0930050639405024,0.9249224488296984,0.5379124600847217,0.878339560466255,1.0062214433762133,0.9531399793637646,0.9120826591606079,0.6334623889880207,1.6940684017625183,2.0728589979184946
23,48.0,53.6,-0.0481204743506236,-0.0487692402465649,0.1105973277339492,-0.02383454372275703,-0.007000481301177853,0.043501705963559616,-0.020956136286258698,0.043135907500982285,0.054292548447847366,0.024285930627866572,0.04176875894538705,0.06709562177038958,0.050141775888375754,0.06202334070339874,0.0840862769732032,0.1661013108511868,0.1890617020766406,0.15897622810766948,0.5046901751406332,0.8564570359147448,0.6066658493936988,1.0420050210441443,1.2717717231153176,0.7602921218447477,3.451780413487014,3.8766587529515046,1.4374328147430435
24,0.0,35.2,0.0171606068421074,0.0612806130866624,0.103559088434714,0.05143617627955369,0.043217884872493714,0.045427876442031806,-0.06768718361854553,0.014634020626544952,-0.018188880756497383,0.03427556943744629,0.018062728214168683,0.05813121199268219,0.010745827768378631,0.008213331244430647,0.017133664812582647,0.030134365488333717,0.00603233548659414,0.001890283222149708,1.9973401729211284,0.29475436527739307,0.5613337551665437,0.6261915949272453,0.13402821595168182,0.16544820036132415,1.7560198054530503,0.09843791017663735,0.01825318521745569
25,9.6,39.52,0.1255469738306534,0.1211336121800279,0.0454132094979371,0.0448995042783309,0.05742703542840672,0.09500962887863415,-0.09501761943101883,0.011666905134916306,-0.02618127502501011,0.08064746955232252,0.06370657675162117,0.04959641938069705,0.01329359102864383,0.0071812138798569985,0.0598518565297042,0.015318498011252707,0.029773614124827735,0.015767598579468415,0.6423688846622898,0.5259198962624917,1.0921143854179691,0.10588539590428649,0.059283412346230795,1.3179393659112109,0.12201407603751066,0.24579151557520143,0.34720291196737946
26,19.200000000000003,43.84,0.0466239666099863,0.0594416495042437,0.0803912401978195,0.027025809594839287,0.060472932553011186,0.08084895098218872,-0.10365215688943863,0.012356340885162354,-0.02462225966155529,0.019598157015147014,0.001031283048767484,0.0004577107843692224,0.010078593110592837,0.00014121193462547643,0.0021482586081802563,0.004915657224476712,0.01319109359390254,0.006614496238038559,0.42034512376622457,0.017349502535151853,0.005693540530571852,0.21616764602851535,0.002375639569278691,0.02672254592532738,0.10543198234497354,0.2219166813828205,0.0822788182115639
27,28.8,48.160000000000004,0.089454480991263,0.0858232247539012,0.0652920430721728,0.09190979099264397,0.08596667869315426,0.044540075886353725,-0.09600494056940079,0.017716046422719955,-0.01101500354707241,0.002455310001380967,0.00014345393925306593,0.02075196718581908,0.002332030251126674,0.0072742235950978285,0.023596989530137377,0.010181203386478557,0.03175628963200526,0.018331954121884854,0.027447590933100115,0.0016715048830246275,0.31783301929884744,0.026069462650556798,0.08475821802264742,0.361406818041421,0.11381434751684438,0.37001976706266493,0.28076857851761505
28,38.400000000000006,52.48,0.0386732071977799,0.046956994108842,0.0532574086182575,0.011636937918828265,0.047421720711411756,0.053287670872105834,-0.073311947286129,0.02726372517645359,0.013405147939920425,0.027036269278951634,0.0004647266025697566,3.0262253848334364e-05,0.002014327760344263,0.0012308838740128433,0.0010580225580196154,0.012382095273723796,0.007479729921009155,0.013594563389277038,0.6990956074753402,0.009896855865444944,0.0005682261798588521,0.05208587304494102,0.02621300399169009,0.01986620426095813,0.3201724442040745,0.1592889422110757,0.25526145079121637
29,48.0,56.8,0.0543580548543768,0.0600066303593003,0.0633205555101064,0.054970592518793215,0.06289028643946706,0.024861608117967105,-0.05191802233457565,0.03602353483438492,0.035821568220853806,0.000612537664416414,0.0028836560801667604,0.0384589473921393,0.006846594653622619,0.009137849571100545,0.008405274925646466,0.021782494442544417,0.013533419778781405,0.05949592150857136,0.011268572174949592,0.04805562423519468,0.6073690775817813,0.12595363597841,0.15228066492629325,0.1327416485521029,0.4007224780375035,0.2255320736683207,0.9395988558419295
30,0.0,44.0,0.018333516851216,0.0290374817588289,0.0191829892436004,0.02125766157171961,0.025682040083937374,0.017880030815349512,-0.1371375024318695,0.002818383276462555,-0.04923269897699356,0.002924144720503608,0.0033554416748915253,0.0013029584282508895,0.003829145967811899,0.015140128906901619,0.004559777546856436,0.021709706368352323,0.012344270536972991,0.016232815342377215,0.15949720635894576,0.11555553276830892,0.06792259598881685,0.20886041662857088,0.5213995150353641,0.2376990097295506,1.184153948450561,0.42511505093652596,0.8462088539090753
31,9.6,47.2,0.0201663887084737,0.0388198425348775,0.0606165713270066,0.019394838890511117,0.040305541913580385,0.020029832311698383,-0.16627174615859985,-0.002012934535741806,-0.061940908432006836,0.0007715498179625829,0.0014856993787028885,0.040586739015308224,0.0072167636870131315,0.0056408266250117245,0.006324022879159237,0.004066574380500527,0.010872324952350326,0.04054770625567801,0.03825919598774698,0.03827164876745879,0.6695650731605393,0.35786098301183317,0.14530781828761288,0.10432828417567862,0.2016510957557709,0.2800713305980605,0.6689211443012238
32,19.2,50.4,-0.0024734339131612,-0.0063582560261658,-0.021995651000974,0.0011807104836152505,-0.01457430453472823,-0.022911836044182142,-0.17686745524406433,-0.003944676369428635,-0.06700117886066437,0.0036541443967764505,0.00821604850856243,0.0009161850432081418,0.015715446843336183,0.01982301899884431,0.00262660866058129,0.03844770891662036,0.020560675038371848,0.0027289830720941995,1.477356794265924,1.2921858564284536,0.041653008731933956,6.3536958718459875,3.117681785267481,0.11941490890471848,15.544263670049641,3.2336972518501255,0.12406921131697153
33,28.799999999999997,53.6,-0.0153250928040376,0.0055713657042089,0.0576066771436423,-0.017655857800530552,0.005176854395303825,0.02029549239136142,-0.1600566804409027,0.0020213015377521515,-0.05168963968753815,0.0023307649964929514,0.0003945113089050753,0.03731118475228088,0.00431008925696519,0.007833782235711524,0.021785108922788496,0.015566850417399554,0.022754191754617476,0.13853473510264563,0.1520881489134526,0.07081052112717011,0.647688542410551,0.28124392537640225,1.4060793442070185,0.37816985813063486,1.0157752789136951,4.084131784317761,2.4048381536954326
34,38.4,56.8,0.149057339537216,-0.054098253817225,-0.047739922915249,-0.0590501427806978,-0.03641140276012877,-0.024338309328014663,-0.12785345315933228,0.01325410045683384,-0.022849926725029945,0.20810748231791382,0.017686851057096234,0.023401613587234336,0.19829003851420957,0.007842654614781834,0.01926125594541537,0.08545576574863603,0.04797758972020317,0.06755750642742436,1.396157230258054,0.326939407635089,0.49018959726387484,1.330293691876215,0.1449705685747054,0.4034622338961292,0.5733080035773737,0.8868602281008745,1.4151155322843068
35,48.0,60.0,-0.0370209781426282,-0.0143328204446984,-0.0617827170476132,-0.02841286238072455,-0.019250328700165402,0.008237272341511975,-0.08810640126466751,0.026511050760746002,0.01122131198644638,0.008608115761903647,0.004917508255467003,0.07001998938912518,0.01466866154490995,0.008517106280331546,0.07300402903405959,0.09334322034721726,0.13866032719046076,0.17893086873750394,0.23251994392854092,0.3430942482284393,1.1333264824718519,0.3962256612560856,0.5942379808073266,1.181625420872938,2.52136018631383,9.674322491198874,2.896131431053928
