,x,y,ref_stress_x,ref_stress_y,ref_stress_xy,spr_stress_x,spr_stress_y,spr_stress_xy,ann_stress_x,ann_stress_y,ann_stress_xy,err_spr_abs_x,err_spr_abs_y,err_spr_abs_xy,err_ann_abs_x,err_ann_abs_y,err_ann_abs_xy,err_dc_abs_x,err_dc_abs_y,err_dc_abs_xy,err_spr_perc_x,err_spr_perc_y,err_spr_perc_xy,err_ann_perc_x,err_ann_perc_y,err_ann_perc_xy,err_dc_perc_x,err_dc_perc_y,err_dc_perc_xy
0,2.0,0.0,-0.01048113581809,0.95690918380732,1.2014399889463,-0.016217289262513594,0.013098182031095744,0.022987775434485117,0.0,0.0,0.0,0.005736153444423594,0.9438110017762243,1.178452213511815,0.01048113581809,1.3142812210846477,1.68216596808495,2.7114769400643977,0.7136058032005904,1.2688012373368398,0.547283571549873,0.9863119904660325,0.9808664805183934,1.0,1.3734649466477342,1.400124836497461,258.7006777819349,0.7457403641600744,1.0560670936628451
1,5.6,0.0,1.27880088405447,1.3140462192518,2.84103709157861,0.01336701039975754,0.01999497492805229,0.039878868512936545,2.2711904048919678,0.0,0.0,1.2654338736547124,1.2940512443237477,2.8011582230656735,1.785539707376194,1.8163544384020085,0.33157033029638994,1.1606420969143416,1.2972171332290205,4.6146843878294685,0.9895472308735218,0.9847836593301587,0.9859632707256286,1.39626092665427,1.38226069356694,0.11670749786380097,0.9076018881332776,0.9871929268725709,1.6242957198652197
2,9.2,0.0,-0.0349564786097,2.94581873598531,3.6318424742291,-0.010521206318017914,0.02275200658740228,0.05099261087866456,2.88360595703125,0.0,0.0,0.024435272291682082,2.923066729397908,3.5808498633504353,0.0349564786097,0.6060403126759839,0.7249187033245588,2.694248521102272,3.1355042545615213,3.453234940369498,0.6990198459206812,0.992276508289709,0.9859595752732948,1.0,0.20572898979586302,0.19960081101216567,77.0743687081413,1.06439144277924,0.9508217839493401
3,12.8,0.0,3.85062901925617,3.95195707278348,1.33336521213984,0.05735740664212668,0.05543100025811541,0.039334098922509414,3.064340591430664,0.0,0.0,3.7932716126140433,3.8965260725253645,1.2940311132173306,0.768548178191717,0.793157901335726,1.8682567971375037,3.8717981128653793,3.8538996858328143,0.4834688105182545,0.9851044059671045,0.9859737848267989,0.9705001311235768,0.19959029403984968,0.20070002956208263,1.4011590973933146,1.0054975676709823,0.9751876386446675,0.36259293861609276
4,16.4,0.0,-0.0897376378285,3.15164164951664,3.70719366131484,-0.005518169864894875,0.029367420584241622,0.057234553450714626,3.1304006576538086,0.0,0.0,0.08421946796360512,3.1222742289323984,3.649959107864125,0.0897376378285,0.641819280894814,0.7406962400501915,2.737330942039609,2.79552408349674,3.8322582744499822,0.9385077432566166,0.9906818655640162,0.9845612183555538,1.0,0.20364602079467006,0.19979971582803335,30.50371068682458,0.8870056923906571,1.0337356568231684
5,20.0,0.0,3.88984251873973,3.97283271394892,1.33336023475197,0.057607122666034814,0.056092622240996905,0.020700296460444446,3.172607421875,0.0,0.0,3.8322353960736955,3.916740091707923,1.3126599382915256,0.7762913789081871,0.7942171438805605,1.8648693165633377,3.7277391197114698,3.9727685124326624,2.91825712743635,0.9851903714897181,0.9858809503747662,0.9844750908862263,0.19956884505434883,0.19991205295204184,1.3986237686998655,0.9583264879626078,0.9999838398641775,2.188648687261324
6,1.9753766811902755,0.31286893008046174,-0.06380803148862,3.43857086199686,3.81223819080752,0.015927990104130933,0.043626766947642115,0.06292111623649961,0.0,0.0,0.0,0.07973602159275094,3.394944095049218,3.74931707457102,0.06380803148862,0.6970411588566012,0.7547006351129397,2.731031175431717,3.719338881306494,3.5420739028702886,1.2496235933398392,0.9873125293331001,0.9834949672378231,1.0,0.20271246015613964,0.197967859650731,42.800743287603055,1.081652532571798,0.9291323693811472
7,5.58030134495222,0.6502951440643694,3.94560529468086,3.99818910312597,1.33337452107045,0.05709900030274559,0.05259096840766104,0.015177860305882617,2.339778423309326,0.0,0.0,3.888506294378115,3.945598134718309,1.3181966607645674,0.7946825194123055,0.7941981668466731,1.8782639295521086,4.036227216143317,3.847628651773143,0.1861207534414726,0.9855284560825885,0.9868463029008451,0.9886169564019436,0.20140953290072652,0.19863947061076528,1.4086544326977348,1.0229678122098593,0.9623428388529417,0.1395862531496796
8,9.185226008714164,0.9877213580482771,0.16333082937496,3.74673405192084,3.92581501330155,0.01947949554373902,0.0665156890493211,0.05900243060186118,2.906923770904541,0.0,0.0,0.14385133383122098,3.680218362871519,3.866812582699689,0.327016317612955,0.7229656269330471,0.7810396226765501,2.9492224239393425,3.1607790359832495,4.1825995382733225,0.8807359540248231,0.9822470215052439,0.9849706543986542,2.002171414082646,0.19295888550253626,0.1989496754254113,18.056740636324005,0.8436091252227553,1.065409226899823
9,12.79015067247611,1.3251475720321846,4.00861591790259,4.02585327943837,1.33337186689906,0.05718884075797641,0.06956988763384417,0.024945806069267995,3.082080841064453,0.0,0.0,3.9514270771446136,3.9562833918045257,1.308426060829792,0.8031644294077172,0.7996493609813387,1.8756811726517213,3.760726399589536,4.057668019540844,2.6427069700347143,0.9857335195166567,0.9827192193045968,0.9812911861360305,0.20035953702143486,0.19862854045512915,1.4067202250291033,0.9381608207446435,1.0079026079427595,1.981972948162386
10,16.395075336238055,1.6625737860160923,0.6638322304849,4.02316895551997,4.02746731881335,0.014895912151611514,0.08104293226092862,0.05017631056660222,3.158799171447754,0.0,0.0,0.6489363183332885,3.9421260232590414,3.9772910082467474,1.0698123741980223,0.8184913737328605,0.8012533867759961,3.4650379273838254,4.980363143805361,3.509199955987662,0.9775607277448237,0.9798559461069279,0.9875414729420111,1.6115704014801628,0.20344444461121955,0.19894721008240904,5.219749461174503,1.2379204549617726,0.8713168048801475
11,20.0,2.0,4.06756709485611,4.04572854831014,2.05683086582359,0.06906292188719906,0.08404971271273456,0.035802316911333544,3.2016220092773438,0.0,0.0,3.998504172968911,3.9616788355974055,2.0210285489122564,0.8060703125532536,0.801623209259847,1.1662278347379336,4.181847414361762,3.912734896733619,0.7723404082922543,0.9830210737090147,0.9792250736278781,0.9825934560268291,0.19817013309322393,0.19814063145553276,0.5670023015095877,1.0280954970970662,0.9671273912749111,0.3755002033105897
12,1.902113032590307,0.6180339887498948,1.45062049938312,4.35451796283046,4.14526044429203,0.014315615115741824,0.07699054458666105,0.06752739470682066,0.0,0.0,0.0,1.4363048842673782,4.277527418243799,4.07773304958521,1.9654661743534523,0.872140195267594,0.8269375473346328,5.633425523536806,3.2989525028606255,4.570474040357299,0.9901313850715404,0.9823193875317907,0.9837097341375004,1.3549141041294204,0.20028398153643123,0.19948988934418221,3.8834591996545162,0.7575930403824281,1.1025782581769457
13,5.5216904260722455,1.2944271909999157,4.13343586549272,4.13423521218264,1.35474791866921,0.06115628575204477,0.07226662083637503,0.01888918806000076,2.509822368621826,0.0,0.0,4.072279579740675,4.061968591346265,1.3358587306092091,0.8232375584553662,0.8299430101867902,1.914109560426249,3.860495549042341,4.143066948603117,2.3011734288349657,0.985204491434693,0.9825199542049707,0.9860570458904591,0.1991654365144561,0.20074886105685016,1.4128898328971111,0.9339676904802191,1.002136244303288,1.698598977066851
14,9.141267819554184,1.9708203932499369,2.39167278692979,4.80666198549242,4.36110141202406,0.030669593740399712,0.07828430731501995,0.07419531612349531,2.9664974212646484,0.0,0.0,2.3610031931893904,4.7283776781774005,4.286906095900565,3.3588541181300244,0.961674354648304,0.8878102533479124,2.25113955155579,5.55245234029682,3.8642891428320856,0.9871765093000994,0.9837133737401758,0.9829870234342797,1.404395340569064,0.2000711424166817,0.20357477835762247,0.9412406094420619,1.155157645171506,0.8860810097600103
15,12.760845213036124,2.6472135954999576,4.2422648135667,4.25071690591069,1.4128954446851,0.06603572066615114,0.07068558393041609,0.006131172559071152,3.113551139831543,0.0,0.0,4.176229092900549,4.180031321980274,1.406764272126029,0.8560455504899176,0.8498358538934783,1.989328619188191,4.383234408927098,4.099583852895244,0.2430160612515362,0.9844338523010233,0.9833709029570691,0.9956605617336125,0.20178974866262395,0.1999276528417519,1.4079800643929203,1.0332297962422288,0.9644452791468439,0.1719986161507503
16,16.38042260651806,3.323606797749979,3.30159271270754,5.21871107119432,4.6233209708379,0.030961585431489292,0.08332007353812437,0.07704661346381309,3.1786155700683594,0.0,0.0,3.270631127276051,5.135390997656195,4.546274357374087,4.511171931915262,1.047203235806136,0.9328326323674414,8.116086052834797,4.457417291629079,4.853933825349738,0.9906222274745395,0.9840343578325258,0.9833352228950157,1.366362336139209,0.20066319470843594,0.20176679020370522,2.458233573631507,0.8541222594660685,1.0498803470419755
17,20.0,4.0,4.38936328389736,4.3429172882098,1.4832179875689,0.07139820709481252,0.07312946561525585,0.02847110326411795,3.1982295513153076,0.0,0.0,4.3179650768025475,4.2697878225945445,1.454746884304782,0.8912575195083221,0.862028444673423,2.0490829615277795,4.196049833376579,4.287719999601627,2.6558815408108645,0.9837338122919237,0.9831612115170169,0.9808045051349571,0.20304938595033892,0.19849064291730062,1.3815116717175016,0.9559586577784611,0.9872902740381395,1.7906211784580928
18,1.7820130483767358,0.9079809994790935,3.96240945376272,5.38338496424355,4.68210581471334,0.04696413938692698,0.08785528341235511,0.0760156216711356,0.0,0.0,0.0,3.915445314375793,5.295529680831195,4.6060901930422045,5.353163284884741,1.0994427416483354,0.9424267165840678,1.3611029862597093,5.876760880022291,4.368289896065241,0.988147580421723,0.9836802896326586,0.983764651061012,1.3509869051522063,0.20422889110677306,0.20128266081098115,0.34350387110226593,1.0916478979407462,0.9329754749108949
19,5.425610438701389,1.9263847995832748,4.41668634356138,4.26632090457032,1.41699676745497,0.07401391119962311,0.06534134413727687,0.02514206275701572,2.741529703140259,0.0,0.0,4.3426724323617565,4.200979560433043,1.3918547046979541,0.883742141138284,0.8611890877063066,1.9874731994334578,4.4136607894531705,4.240733769421483,0.0811891029418621,0.9832422079717025,0.9846843813208519,0.9822567959684391,0.20009166882013216,0.20185755056159815,1.4025954364053388,0.9993149719330602,0.9940025291765026,0.057296604203045345
20,9.069207829026041,2.944788599687456,12.61261704069545,1.79566508606103,1.52540802349293,0.10702121433368253,0.040435132051994255,0.021895562752978118,3.05753755569458,0.0,0.0,12.505595826361768,1.7552299540090357,1.5035124607399517,1.9845385800020914,2.8348709933457084,2.1919317306116843,17.68716790862715,1.1801550842863684,1.6596665698768356,0.9915147495568627,0.9774818075119494,0.9856460944116178,0.1573455036015797,1.578730363112578,1.4369478177992838,1.4023392489883997,0.6572244977347953,1.0880148421380897
21,12.712805219350695,3.9631923997916374,1.43908254583517,1.37222782898699,3.76957939889227,0.03045313947178779,0.037735704036640845,0.05958339773120003,3.1509227752685547,0.0,0.0,1.4086294063633822,1.3344921249503492,3.70999600116107,2.14178379098734,2.1125043220445043,0.36081646706853965,1.3153714229957985,1.24562417047956,5.219504642532099,0.9788385040455658,0.9725004090140789,0.9841936217741669,1.4882980807361248,1.5394705437536589,0.09571796449613697,0.9140347277524822,0.907738601540466,1.3846384676406882
22,16.356402609675346,4.981596199895819,-4.4703028610741,0.04258320256124,0.04333462228941,-0.048351316815778256,0.019559871266901285,0.0031421171162664377,3.203990936279297,0.0,0.0,4.421951544258322,0.023023331294338714,0.04019250517314356,4.4703028610741,0.04258320256124,0.04333462228941,2.1173178831310184,0.6842106609722173,0.4601746338101844,0.9891838834373381,0.5406669745242451,0.9274917617769498,1.0,1.0,1.0,0.4736408133703676,16.067618681057073,10.619098759807137
23,20.0,6.0,0.03909997007892,0.03539311774335,-0.25975858042158,-0.0015158135889326554,-0.0021399902617245652,-0.004012520280100295,3.2116384506225586,0.0,0.0,0.04061578366785266,0.03753310800507457,0.2557460601414797,0.03909997007892,0.03539311774335,0.25975858042158,0.265088221910364,0.27864537694838004,0.15847673043599747,1.0387676406368884,1.0604634572529754,0.9845528864779438,1.0,1.0,1.0,6.779755109154962,7.872868928048437,0.6100923795425534
24,1.618033988749895,1.1755705045849463,-1.32178917499956,0.08843660961686,0.11592589621622,-0.023159242906133904,0.0016311971357722346,0.01496041653294222,0.49034714698791504,0.0,0.0,1.2986299320934263,0.08680541248108778,0.10096547968327778,1.32178917499956,0.08843660961686,0.11592589621622,3.5155164739867986,0.7895676228709285,0.3800948175572307,0.9824788677769725,0.98155518237482,0.8709484505080841,1.0,1.0,1.0,2.6596650513407094,8.928063007974034,3.2787740268860563
25,5.294427190999916,2.5404564036679567,0.11016994600639,0.09824375893063,0.04887208014781,-0.00016769299125219198,-0.003497892727339104,-0.0028803471455386906,3.023768424987793,0.0,0.0,0.11033763899764219,0.10174165165796911,0.05175242729334869,0.11016994600639,0.09824375893063,0.04887208014781,0.4689992973459035,0.1743984828789473,0.31692562929191237,1.0015221301029091,1.0356042232647977,1.0589364548598565,1.0,1.0,1.0,4.25705298356687,1.7751609341626495,6.484799262347627
26,8.970820393249937,3.9053423027509675,-0.86824433345086,-0.01619387816589,0.07874374281217,-0.015459128391455218,0.00219836394444738,0.011366424097040384,3.144775390625,0.0,0.0,0.8527852050594048,0.01839224211033738,0.06737731871512961,0.86824433345086,0.01619387816589,0.07874374281217,2.2117549916337684,1.0229038760195077,0.6779349000354398,0.9821949561939408,1.1357527778045104,0.8556529866232916,1.0,1.0,1.0,2.547387764505286,63.166084463578514,8.609381213343386
27,12.647213595499958,5.270228201833978,0.09128793987819,0.0804302789407,0.03193452896526,-0.00241131242420053,-0.0018943882237280978,-0.0010261178827136103,3.205451488494873,0.0,0.0,0.09369925230239054,0.0823246671644281,0.03296064684797361,0.09128793987819,0.0804302789407,0.03193452896526,0.33172602833446535,0.4069186413351899,0.3300622772570519,1.0264143590864037,1.023553172370878,1.0321319247836682,1.0,1.0,1.0,3.6338428578528963,5.059271790356524,10.33559247471946
28,16.32360679774998,6.635114100916988,-0.27125908317858,-0.15279831182537,0.03093764572923,-0.014980234205179714,0.004354916197765612,0.0043227591999165345,3.2262039184570312,0.0,0.0,0.2562788489734003,0.1571532280231356,0.026614886529313465,0.27125908317858,0.15279831182537,0.03093764572923,3.1747492838425106,0.7478263509933927,0.6010084087619284,0.9447751793980752,1.0285010753439656,0.8602751082693931,1.0,1.0,1.0,11.703752908994588,4.894205584208731,19.42644291753892
29,20.0,8.0,0.06662385059433,0.05803052759561,0.01067828594202,-0.002775128582195705,0.002889611741008982,-0.0001320043350680933,3.2090530395507812,0.0,0.0,0.06939897917652571,0.055140915854601014,0.010810290277088092,0.06662385059433,0.05803052759561,0.01067828594202,0.5676636383149054,0.35916692872725126,0.14339513090026826,1.0416536804378564,0.9502053167404326,1.0123619404635573,1.0,1.0,1.0,8.520426742839991,6.189275603870646,13.428665581616965
30,1.4142135623730951,1.414213562373095,0.28960216447418,-0.28297125746351,-0.013505572068,-0.014234884186274091,0.009520082260729397,-0.002732629526802457,1.7336446046829224,0.0,0.0,0.30383704866045413,0.2924913397242394,0.010772942541197542,0.28960216447418,0.28297125746351,0.013505572068,4.646400845557219,1.6494874722324326,0.7806823669804714,1.0491532382436433,1.0336432835831642,0.7976665103082061,1.0,1.0,1.0,16.044081901091857,5.829169672630582,57.80446493119786
31,5.131370849898476,3.1313708498984756,0.04245953286202,0.0344790672947,-0.00746913218833,-0.0047473991589766775,0.010231466767865701,-0.0104434972964063,3.2046775817871094,0.0,0.0,0.04720693202099668,0.0242476005268343,0.0029743651080763,0.04245953286202,0.0344790672947,0.00746913218833,0.4600285098162985,0.3630485727963602,0.2285213321015298,1.1118099714946046,0.7032556977131905,0.3982209757545246,1.0,1.0,1.0,10.83451651037342,10.529535781618046,30.59543282130935
32,8.848528137423857,4.848528137423857,0.65920055093463,-0.37928208147388,-0.04720020027784,-0.010281296632925764,0.012072097944655283,-0.0054480349532960975,3.2262139320373535,0.0,0.0,0.6694818475675558,0.3913541794185353,0.0417521653245439,0.65920055093463,0.37928208147388,0.04720020027784,6.863248690481097,2.220767267154746,1.2729354452768715,1.0155966141386694,1.031828811679538,0.884576020414602,1.0,1.0,1.0,10.411472928458906,5.855186352397413,26.968856864671004
33,12.565685424949237,6.565685424949238,0.02191904117612,0.01842365953671,-0.0964626551303,-0.0028958523086507876,0.004698295742970011,-0.0075699311363162615,3.2614967823028564,0.0,0.0,0.024814893484770787,0.013725363793739991,0.08889272399398374,0.02191904117612,0.01842365953671,0.0964626551303,0.5545717670233908,0.21017157756504012,1.725433283896035,1.1321158295831715,0.7449857486994679,0.921524748348561,1.0,1.0,1.0,25.300913601438765,11.407699819151752,17.88705983227759
34,16.28284271247462,8.282842712474618,0.76250098344057,-0.56997807513881,-0.16174863208881,-0.012292344002989493,-0.0022328723530705055,0.011117757452189169,3.244105339050293,0.0,0.0,0.7747933274435596,0.5677452027857396,0.17286638954099917,0.76250098344057,0.56997807513881,0.16174863208881,8.888022683074329,2.3975183067867696,0.6278654326042967,1.0161210860968648,0.9960825293981235,1.0687347850094018,1.0,1.0,1.0,11.656408156970029,4.206334263301072,3.8817356567167742
35,20.0,10.0,-0.01167698378303,0.00721052245492,-3.241814983e-05,-0.0016023943584472246,-0.007357957605738027,-0.00013989391569217574,3.2230587005615234,0.0,0.0,0.010074589424582775,0.014568480060658025,0.00010747576586217574,0.01167698378303,0.00721052245492,3.241814983e-05,0.23582946824431367,0.004130444386193742,3.236998161762524,0.8627732650638804,2.020447221645836,3.315296104983662,1.0,1.0,1.0,20.196094524601584,0.5728356595540994,99851.41591168112
36,1.1755705045849463,1.618033988749895,0.6223836965527,-0.62489368319371,-0.30386402047466,-0.00325058672887475,-0.008832396674948449,0.0034875313793563626,3.4160866737365723,0.0,0.0,0.6256342832815748,0.6160612865187616,0.30735155185401636,0.6223836965527,0.62489368319371,0.30386402047466,8.285288551086026,0.5255737058892647,0.7090176285639681,1.005222801861423,0.9858657609886409,1.0114772764933095,1.0,1.0,1.0,13.31218763758937,0.8410609996938355,2.333338535626645
37,4.140456403667956,3.294427190999916,-0.09197665776425,-0.00767660615467,-1.318893232e-05,0.0093491242176517,0.0031271372126363615,-0.006682643031226013,3.482377767562866,0.0,0.0,0.1013257819819017,0.010803743367306362,0.006669454098906014,0.09197665776425,0.00767660615467,1.318893232e-05,0.11455574425347902,0.20624470074116588,3.6194943396050228,1.101646705206607,1.4073593394828512,505.68567167429467,1.0,1.0,1.0,1.2454871381291392,26.866651302112018,274434.2189182621
38,7.105342302750968,4.970820393249937,0.35097770249198,-0.22741620556761,-0.28926150634959,-0.0031382244777975556,-0.007450240224195553,-0.004596162308013626,3.3183228969573975,0.0,0.0,0.35411592696977756,0.21996596534341445,0.2846653440415764,0.35097770249198,0.22741620556761,0.28926150634959,10.101571895654816,0.7638427806855353,0.2718922867141331,1.0089413784850598,0.9672396247857517,0.9841107018835099,1.0,1.0,1.0,28.78123545721723,3.358787817161287,0.9399532282927922
39,10.070228201833977,6.647213595499958,-0.16282513678929,-0.0430921627932,1.182226151e-05,0.0007248214280550059,0.004095688691686376,0.0013472156961264528,3.3101983070373535,0.0,0.0,0.163549958217345,0.04718785148488638,0.001335393434616453,0.16282513678929,0.0430921627932,1.182226151e-05,0.13379973063763628,0.5397019052796931,4.2129933356830565,1.00445153274456,1.0950448625969798,112.95583619825146,1.0,1.0,1.0,0.8217387884696504,12.524363371356676,356361.0339797886
40,13.035114100916989,8.323606797749978,0.10140021845143,0.6930164400205,0.18991266648297,-0.0045737818086860746,-0.0016240835797105713,-0.002240912446278576,3.3042922019958496,0.0,0.0,0.10597400026011608,0.6946405236002106,0.1921535789292486,0.10140021845143,0.6930164400205,0.18991266648297,9.933501122190897,0.8012806190368219,0.4265856037962503,1.0451062322994589,1.0023434993543046,1.0117996997661003,1.0,1.0,1.0,97.96331086751036,1.1562216605036373,2.2462198635629362
41,16.0,10.0,0.02186101980422,-0.01447075435445,8.50924452e-06,-0.003062423600352248,-0.004415552139935348,-0.01784787665141259,3.268857479095459,0.0,0.0,0.024923443404572247,0.010055202214514652,0.017856385895932587,0.02186101980422,0.01447075435445,8.50924452e-06,0.43607840750603527,0.657971334837967,4.790979588475722,1.140086035682612,0.6948637208690167,2098.4690067329957,1.0,1.0,1.0,19.947761422450007,45.469041815061274,563032.3088277786
42,0.9079809994790936,1.7820130483767356,0.00460220996,0.41960680053106,0.21491678236966,0.003908683050804805,-0.0011144626086513965,0.002076832935035426,5.7505269050598145,0.0,0.0,0.0006935269091951947,0.42072126313971137,0.21283994943462456,0.00460220996,0.41960680053106,0.21491678236966,9.977716448504843,0.4791851836387017,0.11200022703141405,0.15069432190685944,1.0026559688909735,0.9903365716155974,1.0,1.0,1.0,2168.0272163212744,1.1419862190799543,0.521132997602635
43,3.126384799583275,3.4256104387013884,0.09804657168492,0.02914980489925,-2.263027199e-05,0.0023843008261138147,0.005672906662064721,0.015538724169917438,3.844987630844116,0.0,0.0,0.09566227085880619,0.023476898237185278,0.015561354441907437,0.09804657168492,0.02914980489925,2.263027199e-05,0.6145635614677635,0.6924740640060192,5.017693222788237,0.9756819561853123,0.8053878342694952,687.6344415473125,1.0,1.0,1.0,6.26807802564183,23.755701501241813,221724.8305723186
44,5.3447885996874565,5.069207829026041,0.00362393139664,1.698927434e-05,1.715689293e-05,0.004345172938245406,-0.004014984632051236,-0.003331456551970121,3.4732911586761475,0.0,0.0,0.0007212415416054064,0.004031973906391236,0.003348613444900121,0.00362393139664,1.698927434e-05,1.715689293e-05,8.555249752470765,4.016818599377573,2.5786979741319467,0.19902185297274663,237.324668829336,195.1759831201628,1.0,1.0,1.0,2360.764820328259,236432.6173673156,150300.98891757475
45,7.563192399791638,6.712805219350694,1.058995143e-05,-4.61352889e-06,0.39056019652523,0.0020736722949797346,0.0028044145495541243,0.0049966413132772934,3.3862192630767822,0.0,0.0,0.0020630823435497346,0.0028090280784441243,0.3855635552119527,1.058995143e-05,4.61352889e-06,0.39056019652523,1.8460847209945443,1.3926602384190852,0.7054540285503564,194.81509024727742,608.8675600434192,0.9872064758320692,1.0,1.0,1.0,174324.19149391173,301864.42344334925,1.8062619663414279
46,9.78159619989582,8.356402609675346,0.20529608221772,-0.24841629210137,-0.09467115658261,0.00531386449821969,-0.005138620275281879,-0.005985869653178111,3.400881052017212,0.0,0.0,0.1999822177195003,0.24327767182608812,0.08868528692943188,0.20529608221772,0.24841629210137,0.09467115658261,0.019564269909811416,0.26519048936749706,0.06327890367603556,0.9741160939808668,0.9793144796107616,0.9367719813589174,1.0,1.0,1.0,0.09529782399385087,1.0675245456899505,0.6684074216503146
47,12.0,10.0,-0.05325823296204,-0.03092879257914,-1.473537728e-05,0.0008690769573131907,0.0052161714803751575,0.00043616537817284294,3.402224063873291,0.0,0.0,0.05412730991935319,0.03614496405951516,0.0004509007554528429,0.05325823296204,0.03092879257914,1.473537728e-05,0.08054525052682018,0.00847401623917016,0.11754858011566702,1.0163181710878886,1.1686509897542272,30.599878570115777,1.0,1.0,1.0,1.512353040030996,0.2739847091504465,7977.303728436807
48,0.6180339887498949,1.902113032590307,0.27605082397325,-0.4423844597508,-0.16921300151292,0.0024773301360849725,-0.011077499952378311,-0.009475945342199124,7.812764644622803,0.0,0.0,0.273573493837165,0.43130695979842165,0.1597370561707209,0.27605082397325,0.4423844597508,0.16921300151292,0.536343938696511,0.33062940343599545,0.23025380290584113,0.9910258187226963,0.9749595635465622,0.9439998980133002,1.0,1.0,1.0,1.9429173620162208,0.7473802394013628,1.3607335183890137
49,2.094427190999916,3.5216904260722455,-0.0959762934734,-0.05744554970681,-8.29751085e-06,0.004041216629948972,0.0026741199945568978,-0.0018887720534203586,4.171507835388184,0.0,0.0,0.10001751010334897,0.060119669701366896,0.0018804745425703585,0.0959762934734,0.05744554970681,8.29751085e-06,0.045382309080462896,0.1124269154740349,0.23185684158320888,1.0421064044431867,1.046550516240249,226.63116404003958,1.0,1.0,1.0,0.47284915303632435,1.9571040062779141,27942.93924704044
50,3.570820393249937,5.1412678195541845,0.13160482440979,-0.54695819022372,-0.21107006717968,0.0056456750981528,-0.01426268039574427,-0.010206824288896105,3.690488338470459,0.0,0.0,0.12595914931163718,0.5326955098279758,0.2008632428907839,0.13160482440979,0.54695819022372,0.21107006717968,0.1891131313931878,0.6805921892752607,0.0894573867703736,0.9571013059477717,0.9739236368507244,0.9516424833455555,1.0,1.0,1.0,1.4369771947290393,1.2443221464457472,0.4238279163204141
51,5.047213595499958,6.760845213036124,-0.1211311415894,-0.06906413346193,2.52891384e-06,0.007643118559236405,-2.4809282421970483e-05,-0.004068321025622612,3.498105764389038,0.0,0.0,0.1287742601486364,0.06903932417950802,0.004070849939462612,0.1211311415894,0.06906413346193,2.52891384e-06,0.22853520593029428,0.018849543706723454,0.36973783254429887,1.063097882666246,0.9996407790675366,1609.7226702917694,1.0,1.0,1.0,1.8866759029231592,0.27292811423043234,146204.20304406216
52,6.523606797749979,8.380422606518062,-0.21552463481485,-0.55569017535167,-0.21847631669689,0.007594678972990943,-0.009268663827589686,-0.01013483140203252,3.480888843536377,0.0,0.0,0.22311931378784094,0.5464215115240803,0.20834148529485746,0.21552463481485,0.55569017535167,0.21847631669689,0.06825379078258403,0.2763113230617744,0.41004981714304495,1.0352381015725431,0.983320446826824,0.9536113041666965,1.0,1.0,1.0,0.31668672512178747,0.4972398925118841,1.8768616358172154
53,8.0,10.0,-0.12671208302587,-0.06131515082177,6.65744862e-06,0.006914796551826798,0.004009614761187486,-0.0019418357829364338,3.5323009490966797,0.0,0.0,0.1336268795776968,0.06532476558295748,0.001948493231556434,0.12671208302587,0.06131515082177,6.65744862e-06,0.011029349986572123,0.15484316551509306,0.4702742271850062,1.0545709326743138,1.0653935398910226,292.6786735841807,1.0,1.0,1.0,0.08704260653911222,2.525365483731565,70638.80685045471
54,0.31286893008046185,1.9753766811902755,-0.66593361037599,-0.48459089176817,-0.19710767396496,-0.0028637198620635688,-0.005989046552659306,-0.0027373278463592586,9.315572738647461,0.0,0.0,0.6630698905139264,0.4786018452155107,0.19437034611860074,0.66593361037599,0.48459089176817,0.19710767396496,0.2229284142486464,1.0560106412461487,0.09561305888563507,0.9956996916547781,0.9876410253382879,0.9861125252442181,1.0,1.0,1.0,0.33476071904942556,2.179179714651649,0.4850803470119194
55,1.0502951440643695,3.58030134495222,-0.11487253808659,-0.03737451652105,0.15554604653991,-0.0005844698578656068,0.007383762695087661,0.001629549337448687,4.283942222595215,0.0,0.0,0.1142880682287244,0.04475827921613766,0.1539164972024613,0.11487253808659,0.03737451652105,0.15554604653991,0.25136210464318853,0.0036928409581844027,0.5938287970412902,0.9949120140670608,1.1975614237291603,0.9895236852771403,1.0,1.0,1.0,2.188182735665802,0.0988063873978016,3.8177042120381097
56,1.7877213580482771,5.1852260087141655,-1.04808884885472,-0.45493224674825,-0.20486775045928,-0.0039006911889237286,-0.00897536105778842,0.00013298448522415545,3.7396790981292725,0.0,0.0,1.0441881576657963,0.4459568856904616,0.20500073494450416,1.04808884885472,0.45493224674825,0.20486775045928,1.3161825603882393,0.17704824172983918,0.574780862527217,0.9962782819479608,0.980270993929443,1.0006491235683803,1.0,1.0,1.0,1.2557929242606425,0.38917496615229824,2.8056190456460444
57,2.5251475720321848,6.79015067247611,-0.13188895890546,-0.06794799279884,-5.868964586e-05,0.0028716119444254997,-0.004721702027784216,-0.003065827567430105,3.5329442024230957,0.0,0.0,0.13476057084988552,0.0632262907710558,0.0030071379215701054,0.13188895890546,0.06794799279884,5.868964586e-05,0.0766661944064218,0.16374962442478064,1.0304608663957142,1.0217729517941219,0.9305100587479779,51.23796331542739,1.0,1.0,1.0,0.5812934990363923,2.409925851813773,17557.79663168876
58,3.2625737860160924,8.395075336238055,-1.21624600082112,-0.23477495478568,-0.1293587718385,-0.003364626052091785,-0.008017687099366856,-0.003976885526944029,3.4051318168640137,0.0,0.0,1.2128813747690281,0.22675726768631316,0.12538188631155597,1.21624600082112,0.23477495478568,0.1293587718385,0.9743964761466208,0.7627167786972607,0.2053280421931242,0.9972335974384949,0.9658494786776299,0.9692569319388017,1.0,1.0,1.0,0.8011508161085668,3.248714409905968,1.5872757546698821
59,4.0,10.0,-0.09289626571594,-0.07258864574,-1.206087081e-05,0.005519706431651225,0.00504987583078531,-0.00911850506515475,3.4044699668884277,0.0,0.0,0.09841597214759122,0.07763852157078531,0.00910644419434475,0.09289626571594,0.07258864574,1.206087081e-05,0.321934263642737,0.047622042684873064,0.9048208930819573,1.0594179581828347,1.0695683984637638,755.0403563558898,1.0,1.0,1.0,3.4655242722797257,0.6560536045189078,75021.19103470915
60,1.2246467991473532e-16,2.0,-1.07246893265218,0.15604921306473,0.10320813170461,-0.0028629232055372203,-0.0036003067308924422,-0.0038058365829315376,10.62807846069336,0.0,0.0,1.0696060094466426,0.15964951979562245,0.10701396828754155,1.07246893265218,0.15604921306473,0.10320813170461,1.3435848307876295,0.5611459199658236,0.12145004680444756,0.9973305304066409,1.0230716109372435,1.036875355847194,1.0,1.0,1.0,1.2527960390097166,3.595954820567134,1.176748816188703
61,9.797174393178826e-17,3.6,0.06465984412836,0.012859446394,1.238016248e-05,-0.0008567808926146257,0.005729877950319115,0.002674267721751889,4.630536079406738,0.0,0.0,0.06551662502097462,0.007129568443680885,0.0026618875592718887,0.06465984412836,0.012859446394,1.238016248e-05,0.22173361294991023,0.09281639875658332,0.6567095905933362,1.013250587039984,0.5544226574953819,215.01232827696205,1.0,1.0,1.0,3.4292320982050932,7.217760074017641,53045.31274563177
62,7.347880794884119e-17,5.2,-0.62815808551652,0.34093116958017,0.31410581740033,-0.003653006861618074,-0.0005654764837397516,0.00034069303447316096,3.7173397541046143,0.0,0.0,0.6245050786549019,0.3414966460639097,0.31376512436585685,0.62815808551652,0.34093116958017,0.31410581740033,0.38475362419777237,0.12175732690171182,0.4334782544808828,0.9941845740015998,1.001658623599702,0.9989153558590769,1.0,1.0,1.0,0.6125108202362759,0.35713169626481034,1.3800389246799967
63,4.898587196589412e-17,6.800000000000001,0.23936173538871,0.16063533249903,7.11422407e-06,-0.0032025350264370833,-0.005004555537478845,-0.015455642887837327,3.5808663368225098,0.0,0.0,0.24256427041514708,0.16563988803650884,0.015462757111907326,0.23936173538871,0.16063533249903,7.11422407e-06,0.16399486650586884,0.21887364659095482,0.3337009620481185,1.013379477806828,1.031154761904633,2173.498748389482,1.0,1.0,1.0,0.6851340137534949,1.3625498399754392,46906.16415292617
64,2.449293598294706e-17,8.4,-0.00264413183334,6.0275142e-07,2.532460758e-05,-0.003574862797840872,0.0022773971297513746,-4.055989293535068e-05,3.484732151031494,0.0,0.0,0.0009307309645008722,0.0022767943783313744,6.588450051535068e-05,0.00264413183334,6.0275142e-07,2.532460758e-05,16.199867222309898,4.57802225839262,2.4712041893635446,0.3519986986901468,3777.3355694979105,2.601600056673047,1.0,1.0,1.0,6126.724476459496,7595207.753127516,97581.1444089332
65,0.0,10.0,1.725971551e-05,1.932879254e-05,-0.00016517408473,0.0005226499206331532,0.0028020656582116183,0.009640312870947014,3.4087629318237305,0.0,0.0,0.0005053902051231531,0.0027827368656716182,0.009805486955677014,1.725971551e-05,1.932879254e-05,0.00016517408473,1.529143936015488,0.9615342476182922,0.5454865568700749,29.28149104371612,143.96847914389267,59.364560558670235,1.0,1.0,1.0,88596.12634573998,49746.2138738591,3302.4948057786937
